RT is False
Default write of storage_offers_DA.csv just to have a file (but constraint should be inactive)
Reading model...
...model read.
creating competitive generators file...
...competitive generators recorded.
Loading data...
.. day-ahead data read.
Compiling instance...
...instance created.
Creating Offer Mitigation (model will solve as dispatch if TRUE)...
NOTE: storage offers will not be mitigated
...storage offer mitigation file created
Converting model to MPEC...
...converted
NOTE: initial MIP solve with only storage competitive to get feasible solution
Solving...

Welcome to IBM(R) ILOG(R) CPLEX(R) Interactive Optimizer 12.9.0.0
  with Simplex, Mixed Integer & Barrier Optimizers
5725-A06 5725-A29 5724-Y48 5724-Y49 5724-Y54 5724-Y55 5655-Y21
Copyright IBM Corp. 1988, 2019.  All Rights Reserved.

Type 'help' for a list of available commands.
Type 'help' followed by a command name for more
information on commands.

CPLEX> Logfile 'cplex.log' closed.
Logfile 'C:\Users\Luke\Desktop\test919\logs\tmpe5xvlwc5.cplex.log' open.
CPLEX> New value for parallel optimization mode: -1
CPLEX> New value for mixed integer optimality gap tolerance: 0.01
CPLEX> New value for integrality tolerance: 1e-09
CPLEX> New value for feasibility tolerance: 0.01
CPLEX> New value for deterministic time limit in ticks: 75000
CPLEX> Problem 'C:\Users\Luke\Desktop\test919\logs\tmpcdwqyt4n.pyomo.lp' read.
Read time = 0.20 sec. (14.73 ticks)
CPLEX> Problem name         : C:\Users\Luke\Desktop\test919\logs\tmpcdwqyt4n.pyomo.lp
Objective sense      : Maximize
Variables            :   53805  [Nneg: 1,  Box: 22000,  Free: 4464,
                                 Binary: 27340]
Objective nonzeros   :    9121
Linear constraints   :  123205  [Less: 41346,  Greater: 59096,  Equal: 22763]
  Nonzeros           :  291845
  RHS nonzeros       :   67583

Variables            : Min LB: -5000.000        Max UB: 1000000.       
Objective nonzeros   : Min   : 0.1000000        Max   : 2500.000       
Linear constraints   :
  Nonzeros           : Min   : 0.1000000        Max   : 1000000.       
  RHS nonzeros       : Min   : 0.1000000        Max   : 1000000.       
CPLEX> CPXPARAM_Parallel                                -1
CPXPARAM_Simplex_Tolerances_Feasibility          0.01
CPXPARAM_DetTimeLimit                            75000
CPXPARAM_MIP_Tolerances_MIPGap                   0.01
CPXPARAM_MIP_Tolerances_Integrality              1.0000000000000001e-09
Tried aggregator 3 times.
MIP Presolve eliminated 88225 rows and 18627 columns.
MIP Presolve added 3471 rows and 0 columns.
MIP Presolve modified 24988 coefficients.
Aggregator did 12983 substitutions.
Reduced MIP has 25468 rows, 21717 columns, and 72420 nonzeros.
Reduced MIP has 8591 binaries, 0 generals, 0 SOSs, and 0 indicators.
Presolve time = 0.25 sec. (174.04 ticks)
Probing fixed 407 vars, tightened 2928 bounds.
Probing time = 1.50 sec. (924.64 ticks)
Tried aggregator 2 times.
MIP Presolve eliminated 921 rows and 820 columns.
MIP Presolve modified 2305 coefficients.
Aggregator did 41 substitutions.
Reduced MIP has 24506 rows, 20856 columns, and 69625 nonzeros.
Reduced MIP has 8182 binaries, 0 generals, 0 SOSs, and 0 indicators.
Presolve time = 0.09 sec. (74.70 ticks)
Probing fixed 0 vars, tightened 1 bounds.
Probing time = 0.05 sec. (21.76 ticks)
Clique table members: 6328.
MIP emphasis: balance optimality and feasibility.
MIP search method: dynamic search.
Parallel mode: opportunistic, using up to 24 threads.
Root relaxation solution time = 0.53 sec. (610.71 ticks)

        Nodes                                         Cuts/
   Node  Left     Objective  IInf  Best Integer    Best Bound    ItCnt     Gap

      0     0     3841.0235   837                   3841.0235     7288         
      0     0     3820.2268    24                    Cuts: 17     7297         
      0     0     3820.2268    21                    Cuts: 28     7303         
      0     0     3820.2268    20                     Cuts: 3     7304         
      0     7    infeasible                         3763.7290     7829         
Elapsed time = 8.09 sec. (5445.18 ticks, tree = 0.02 MB, solutions = 0)
    303    66     3283.6580     2                   3763.7290     9223         
*   365    61      integral     0      653.2207     3763.7290     9158  476.18%
    672   136     1364.7118     2     3656.9007     3759.3531    10566    2.80%

Cover cuts applied:  2
Implied bound cuts applied:  21
Flow cuts applied:  11
Gomory fractional cuts applied:  7

Root node processing (before b&c):
  Real time             =    7.73 sec. (5437.37 ticks)
Parallel b&c, 24 threads:
  Real time             =    2.08 sec. (713.84 ticks)
  Sync time (average)   =    0.58 sec.
  Wait time (average)   =    0.00 sec.
                          ------------
Total (root+branch&cut) =    9.81 sec. (6151.21 ticks)

Solution pool: 4 solutions saved.

MIP - Integer optimal, tolerance (0.01/1e-06):  Objective =  3.6569007498e+03
Current MIP best bound =  3.6743414175e+03 (gap = 17.4407, 0.48%)
Solution time =    9.84 sec.  Iterations = 12940  Nodes = 746 (15)
Deterministic time = 6151.36 ticks  (624.88 ticks/sec)

CPLEX> Incumbent solution written to file 'C:\Users\Luke\Desktop\test919\logs\tmp51kgua2l.cplex.sol'.
CPLEX> NOTE: no warmstart specified for MIP iteration, default behavior is true
NOTE: resolving with all competitive generators using storage-only solution to warmstart
Solving...

Welcome to IBM(R) ILOG(R) CPLEX(R) Interactive Optimizer 12.9.0.0
  with Simplex, Mixed Integer & Barrier Optimizers
5725-A06 5725-A29 5724-Y48 5724-Y49 5724-Y54 5724-Y55 5655-Y21
Copyright IBM Corp. 1988, 2019.  All Rights Reserved.

Type 'help' for a list of available commands.
Type 'help' followed by a command name for more
information on commands.

CPLEX> Logfile 'cplex.log' closed.
Logfile 'C:\Users\Luke\Desktop\test919\logs\tmp7c3_89_c.cplex.log' open.
CPLEX> New value for parallel optimization mode: -1
CPLEX> New value for mixed integer optimality gap tolerance: 0.01
CPLEX> New value for integrality tolerance: 1e-09
CPLEX> New value for feasibility tolerance: 0.01
CPLEX> New value for deterministic time limit in ticks: 75000
CPLEX> Problem 'C:\Users\Luke\Desktop\test919\logs\tmphritu9qq.pyomo.lp' read.
Read time = 0.19 sec. (14.75 ticks)
CPLEX> MIP start file 'C:\Users\Luke\Desktop\test919\logs\tmpv5ktiyvo.cplex.mst' read.
CPLEX> Problem name         : C:\Users\Luke\Desktop\test919\logs\tmphritu9qq.pyomo.lp
Objective sense      : Maximize
Variables            :   54525  [Nneg: 1,  Box: 22720,  Free: 4464,
                                 Binary: 27340]
Objective nonzeros   :    9841
Linear constraints   :  123205  [Less: 41346,  Greater: 59096,  Equal: 22763]
  Nonzeros           :  291845
  RHS nonzeros       :   67583

Variables            : Min LB: -5000.000        Max UB: 1000000.       
Objective nonzeros   : Min   : 0.1000000        Max   : 2500.000       
Linear constraints   :
  Nonzeros           : Min   : 0.1000000        Max   : 1000000.       
  RHS nonzeros       : Min   : 0.1000000        Max   : 1000000.       
CPLEX> CPXPARAM_Parallel                                -1
CPXPARAM_Simplex_Tolerances_Feasibility          0.01
CPXPARAM_DetTimeLimit                            75000
CPXPARAM_MIP_Tolerances_MIPGap                   0.01
CPXPARAM_MIP_Tolerances_Integrality              1.0000000000000001e-09
Warning:  No solution found from 1 MIP starts.
Retaining values of one MIP start for possible repair.
Tried aggregator 3 times.
MIP Presolve eliminated 88225 rows and 19347 columns.
MIP Presolve added 3471 rows and 0 columns.
MIP Presolve modified 24988 coefficients.
Aggregator did 12983 substitutions.
Reduced MIP has 25468 rows, 21717 columns, and 72420 nonzeros.
Reduced MIP has 8591 binaries, 0 generals, 0 SOSs, and 0 indicators.
Presolve time = 0.23 sec. (174.40 ticks)
Probing fixed 407 vars, tightened 2928 bounds.
Probing time = 1.48 sec. (924.64 ticks)
Tried aggregator 2 times.
MIP Presolve eliminated 921 rows and 820 columns.
MIP Presolve modified 2305 coefficients.
Aggregator did 41 substitutions.
Reduced MIP has 24506 rows, 20856 columns, and 69625 nonzeros.
Reduced MIP has 8182 binaries, 0 generals, 0 SOSs, and 0 indicators.
Presolve time = 0.11 sec. (74.70 ticks)
Probing fixed 0 vars, tightened 1 bounds.
Probing time = 0.05 sec. (21.76 ticks)
Clique table members: 6328.
MIP emphasis: balance optimality and feasibility.
MIP search method: dynamic search.
Parallel mode: opportunistic, using up to 24 threads.
Root relaxation solution time = 0.53 sec. (610.71 ticks)

        Nodes                                         Cuts/
   Node  Left     Objective  IInf  Best Integer    Best Bound    ItCnt     Gap

      0     0     3841.0235   837                   3841.0235     7288         
      0     0     3820.2268    24                    Cuts: 17     7297         
      0     0     3820.2268    21                    Cuts: 28     7303         
      0     0     3820.2268    20                     Cuts: 3     7304         
Repair heuristic found nothing.
      0     8    infeasible                       Impl Bds: 1     7624         
Elapsed time = 8.42 sec. (5542.52 ticks, tree = 0.02 MB, solutions = 0)
    410    87     3121.8074     2                   3763.7290    10727         
*   416    88      integral     0     3652.8408     3763.7290    10729    3.04%
*   430    58      integral     0     3656.9007     3763.7290     9321    2.92%
    565    34        cutoff           3656.9007     3760.1228    14057    2.82%

Implied bound cuts applied:  20
Flow cuts applied:  11
Gomory fractional cuts applied:  7

Root node processing (before b&c):
  Real time             =    8.06 sec. (5535.23 ticks)
Parallel b&c, 24 threads:
  Real time             =    1.64 sec. (555.08 ticks)
  Sync time (average)   =    0.63 sec.
  Wait time (average)   =    0.00 sec.
                          ------------
Total (root+branch&cut) =    9.70 sec. (6090.31 ticks)

Solution pool: 2 solutions saved.

MIP - Integer optimal, tolerance (0.01/1e-06):  Objective =  3.6569007498e+03
Current MIP best bound =  3.6743414175e+03 (gap = 17.4407, 0.48%)
Solution time =    9.72 sec.  Iterations = 14862  Nodes = 571 (17)
Deterministic time = 6090.47 ticks  (626.66 ticks/sec)

CPLEX> Incumbent solution written to file 'C:\Users\Luke\Desktop\test919\logs\tmpx6l8_6eg.cplex.sol'.
CPLEX> Exporting results... 
